Using license file /home/benedond/gurobi.lic
Using gurobi.env file
Set parameter Threads to value 1
Academic license - for non-commercial use only
Changed value of parameter TimeLimit to 300.0
   Prev: inf  Min: 0.0  Max: inf  Default: inf
Gurobi Optimizer version 9.0.1 build v9.0.1rc0 (linux64)
Optimize a model with 1002 rows, 901 columns and 4267 nonzeros
Model fingerprint: 0x42c9ed5a
Variable types: 40 continuous, 861 integer (861 binary)
Coefficient statistics:
  Matrix range     [2e-01, 4e+02]
  Objective range  [2e-02, 5e-01]
  Bounds range     [1e+00, 1e+00]
  RHS range        [1e+00, 8e+02]
Presolve removed 84 rows and 57 columns
Presolve time: 0.03s
Presolved: 918 rows, 844 columns, 4010 nonzeros
Variable types: 39 continuous, 805 integer (805 binary)

Root relaxation: objective 2.516804e+00, 955 iterations, 0.02 seconds

    Nodes    |    Current Node    |     Objective Bounds      |     Work
 Expl Unexpl |  Obj  Depth IntInf | Incumbent    BestBd   Gap | It/Node Time

     0     0    2.51680    0   80          -    2.51680      -     -    0s
     0     0    2.66196    0   78          -    2.66196      -     -    0s
     0     0    2.72992    0   71          -    2.72992      -     -    0s
     0     0    2.82686    0   93          -    2.82686      -     -    0s
H    0     0                       4.4127195    2.82686  35.9%     -    0s
     0     0    2.83102    0  118    4.41272    2.83102  35.8%     -    0s
     0     0    2.89028    0   98    4.41272    2.89028  34.5%     -    0s
H    0     0                       4.1463781    2.89028  30.3%     -    0s
H    0     0                       3.9143781    2.89028  26.2%     -    0s
     0     0    2.91757    0  120    3.91438    2.91757  25.5%     -    0s
     0     0    2.93289    0  132    3.91438    2.93289  25.1%     -    0s
     0     0    2.93451    0  104    3.91438    2.93451  25.0%     -    0s
     0     0    2.93519    0  114    3.91438    2.93519  25.0%     -    0s
     0     0    2.93522    0  114    3.91438    2.93522  25.0%     -    0s
     0     0    2.97805    0   80    3.91438    2.97805  23.9%     -    0s
     0     0    2.98850    0   94    3.91438    2.98850  23.7%     -    0s
     0     0    2.99918    0   96    3.91438    2.99918  23.4%     -    0s
     0     0    3.00387    0  127    3.91438    3.00387  23.3%     -    0s
     0     0    3.00539    0  120    3.91438    3.00539  23.2%     -    0s
     0     0    3.00567    0  116    3.91438    3.00567  23.2%     -    0s
     0     0    3.02468    0  135    3.91438    3.02468  22.7%     -    0s
     0     0    3.02853    0  129    3.91438    3.02853  22.6%     -    0s
     0     0    3.02955    0  162    3.91438    3.02955  22.6%     -    0s
     0     0    3.02973    0  148    3.91438    3.02973  22.6%     -    0s
     0     0    3.04052    0  122    3.91438    3.04052  22.3%     -    0s
H    0     0                       3.8251586    3.04052  20.5%     -    0s
     0     0    3.04810    0  118    3.82516    3.04810  20.3%     -    0s
     0     0    3.04846    0  141    3.82516    3.04846  20.3%     -    0s
     0     0    3.05725    0  141    3.82516    3.05725  20.1%     -    0s
     0     0    3.05848    0  150    3.82516    3.05848  20.0%     -    0s
     0     0    3.05921    0  149    3.82516    3.05921  20.0%     -    0s
     0     0    3.05926    0  150    3.82516    3.05926  20.0%     -    0s
     0     0    3.06509    0  103    3.82516    3.06509  19.9%     -    0s
     0     0    3.06910    0  123    3.82516    3.06910  19.8%     -    0s
     0     0    3.07063    0  121    3.82516    3.07063  19.7%     -    0s
     0     0    3.07093    0  130    3.82516    3.07093  19.7%     -    0s
     0     0    3.07417    0  122    3.82516    3.07417  19.6%     -    0s
     0     0    3.07448    0  129    3.82516    3.07448  19.6%     -    0s
     0     0    3.07702    0  131    3.82516    3.07702  19.6%     -    0s
     0     0    3.07702    0  131    3.82516    3.07702  19.6%     -    0s
     0     2    3.07828    0  131    3.82516    3.07828  19.5%     -    0s
H   27    22                       3.7666830    3.09158  17.9%  94.2    1s
H   54    43                       3.7175854    3.09158  16.8%  73.1    1s
H  162   125                       3.6930366    3.10418  15.9%  55.0    1s
H  203   134                       3.6097073    3.10439  14.0%  51.6    1s
H  510   237                       3.5323658    3.18757  9.76%  53.9    2s
H  538   242                       3.5119268    3.18757  9.24%  51.1    3s
H  575   248                       3.5090975    3.18757  9.16%  60.4    4s
   580   250    3.42573   26   64    3.50910    3.18757  9.16%  60.9    5s
H  602   233                       3.4924146    3.18757  8.73%  59.4    5s
H  873   210                       3.4496098    3.29315  4.54%  60.0    6s
* 1408   118              35       3.4485610    3.37726  2.07%  51.5    7s
H 1462    92                       3.4446341    3.38806  1.64%  51.1    7s
* 1466    84              35       3.4388537    3.38806  1.48%  51.0    7s

Cutting planes:
  Cover: 9
  Implied bound: 3
  Projected implied bound: 1
  Clique: 1
  MIR: 93
  StrongCG: 2
  Flow cover: 165
  Zero half: 1
  RLT: 7
  Relax-and-lift: 65

Explored 1634 nodes (83257 simplex iterations) in 8.12 seconds
Thread count was 1 (of 4 available processors)

Solution count 10: 3.43885 3.44463 3.44856 ... 3.69304

Optimal solution found (tolerance 1.00e-04)
Best objective 3.438853657627e+00, best bound 3.438853657627e+00, gap 0.0000%
